multiobj/instances/uniform/Ter.7.2.1.00.2.in
7 2
0 766 274 345 649 838 958 
766 0 343 397 851 130 809 
274 343 0 523 333 968 703 
345 397 523 0 551 820 151 
649 851 333 551 0 663 210 
838 130 968 820 663 0 189 
958 809 703 151 210 189 0 
0 183 51 434 86 773 74 
183 0 818 513 766 213 966 
51 818 0 698 467 542 99 
434 513 698 0 960 306 165 
86 766 467 960 0 634 413 
773 213 542 306 634 0 12 
74 966 99 165 413 12 0 
0 183 51 434 86 773 74 
183 0 818 513 766 213 966 
51 818 0 698 467 542 99 
434 513 698 0 960 306 165 
86 766 467 960 0 634 413 
773 213 542 306 634 0 12 
74 966 99 165 413 12 0 
