multiobj/solutions/Ter.7.2.1.00.2.out
1 2
5 2 4 6 3 1 0 
7561496 7561496 
